solution status: optimal solution found
objective value:                     181485.289163768
d11(0,0)                                            1 	(obj:0)
d11(1,1)                                            1 	(obj:0)
d11(2,3)                                            1 	(obj:0)
d11(2,4)                                            1 	(obj:0)
d11(2,5)                                            1 	(obj:0)
d11(2,6)                                            1 	(obj:0)
d11(3,7)                                            1 	(obj:0)
d11(3,13)                                           1 	(obj:0)
d11(4,15)                                           1 	(obj:0)
d11(4,17)                                           1 	(obj:0)
d11(4,21)                                           1 	(obj:0)
d11(4,23)                                           1 	(obj:0)
d11(4,25)                                           1 	(obj:0)
d11(5,31)                                           1 	(obj:0)
d11(5,33)                                           1 	(obj:0)
d11(5,34)                                           1 	(obj:0)
d11(5,35)                                           1 	(obj:0)
d11(5,36)                                           1 	(obj:0)
d11(5,37)                                           1 	(obj:0)
d11(5,38)                                           1 	(obj:0)
d11(5,39)                                           1 	(obj:0)
d11(5,40)                                           1 	(obj:0)
d11(5,41)                                           1 	(obj:0)
d11(5,42)                                           1 	(obj:0)
d11(5,43)                                           1 	(obj:0)
d11(5,45)                                           1 	(obj:0)
d11(5,46)                                           1 	(obj:0)
d11(5,47)                                           1 	(obj:0)
d11(5,48)                                           1 	(obj:0)
d11(5,49)                                           1 	(obj:0)
d11(5,50)                                           1 	(obj:0)
d11(5,51)                                           1 	(obj:0)
d11(5,52)                                           1 	(obj:0)
d11(5,53)                                           1 	(obj:0)
d11(5,54)                                           1 	(obj:0)
d11(5,55)                                           1 	(obj:0)
d11(5,56)                                           1 	(obj:0)
d11(5,57)                                           1 	(obj:0)
d11(5,58)                                           1 	(obj:0)
d11(5,59)                                           1 	(obj:0)
d11(5,60)                                           1 	(obj:0)
d11(5,61)                                           1 	(obj:0)
d11(5,62)                                           1 	(obj:0)
d12(3,8)                                            1 	(obj:0)
d12(3,10)                                           1 	(obj:0)
d12(3,12)                                           1 	(obj:0)
d12(3,14)                                           1 	(obj:0)
d12(4,16)                                           1 	(obj:0)
d12(4,18)                                           1 	(obj:0)
d12(4,20)                                           1 	(obj:0)
d12(4,22)                                           1 	(obj:0)
d12(4,24)                                           1 	(obj:0)
d12(4,26)                                           1 	(obj:0)
d12(4,28)                                           1 	(obj:0)
d12(4,30)                                           1 	(obj:0)
d21(3,7)                                            1 	(obj:0)
d21(4,15)                                           1 	(obj:0)
d21(5,31)                                           1 	(obj:0)
d21(5,32)                                           1 	(obj:0)
d21(5,33)                                           1 	(obj:0)
d21(5,34)                                           1 	(obj:0)
d21(5,35)                                           1 	(obj:0)
d21(5,36)                                           1 	(obj:0)
d21(5,37)                                           1 	(obj:0)
d21(5,39)                                           1 	(obj:0)
d21(5,40)                            1.00000000000009 	(obj:0)
d21(5,41)                                           1 	(obj:0)
d21(5,43)                                           1 	(obj:0)
d21(5,47)                                           1 	(obj:0)
d21(5,49)                                           1 	(obj:0)
d21(5,51)                                           1 	(obj:0)
STE(1,1)                             7035.75010111115 	(obj:0)
STE(0,0)                                         9450 	(obj:0)
STE(1,2)                                         8694 	(obj:0)
STE(2,3)                             4389.75030102602 	(obj:0)
STE(2,4)                             6048.00019991483 	(obj:0)
STE(2,5)                             6048.00019991486 	(obj:0)
STE(2,6)                             7706.25009880368 	(obj:0)
STE(3,7)                             3633.75030102606 	(obj:0)
STE(3,8)                             4949.96438690252 	(obj:0)
STE(3,9)                             5292.00019991483 	(obj:0)
STE(3,10)                            6608.21428579134 	(obj:0)
STE(3,11)                            5292.00019991486 	(obj:0)
STE(3,12)                            6608.21428579137 	(obj:0)
STE(3,13)                            6950.25009880368 	(obj:0)
STE(3,14)                            8266.46418468018 	(obj:0)
STE(4,15)                            2877.75030102606 	(obj:0)
STE(4,16)                            4193.96438690256 	(obj:0)
STE(4,17)                            4193.96438690252 	(obj:0)
STE(4,18)                            5510.17847277903 	(obj:0)
STE(4,19)                            4536.00019991483 	(obj:0)
STE(4,20)                            5852.21428579134 	(obj:0)
STE(4,21)                            5852.21428579134 	(obj:0)
STE(4,22)                            7168.42837166785 	(obj:0)
STE(4,23)                            4536.00020008551 	(obj:0)
STE(4,24)                            5852.21428579137 	(obj:0)
STE(4,25)                            5852.21428579137 	(obj:0)
STE(4,26)                            7168.42837166787 	(obj:0)
STE(4,27)                            6194.25009880368 	(obj:0)
STE(4,28)                            7510.46418468018 	(obj:0)
STE(4,29)                            7510.46418468018 	(obj:0)
STE(4,30)                            8826.67827055669 	(obj:0)
STE(5,31)                            463.500402137148 	(obj:0)
STE(5,32)                            2121.75030102606 	(obj:0)
STE(5,33)                            1779.71448801365 	(obj:0)
STE(5,34)                            3437.96438690256 	(obj:0)
STE(5,35)                            1779.71448801361 	(obj:0)
STE(5,36)                            3437.96438690239 	(obj:0)
STE(5,37)                            3095.92857389012 	(obj:0)
STE(5,38)                            4754.17847277894 	(obj:0)
STE(5,39)                            2121.75030102592 	(obj:0)
STE(5,40)                            3780.00019991483 	(obj:0)
STE(5,41)                            3437.96438690243 	(obj:0)
STE(5,42)                            5096.21428579134 	(obj:0)
STE(5,43)                            3437.96438690243 	(obj:0)
STE(5,44)                            5096.21428579134 	(obj:0)
STE(5,45)                            4754.17847277894 	(obj:0)
STE(5,46)                            6412.42837166776 	(obj:0)
STE(5,47)                             2121.7503011966 	(obj:0)
STE(5,48)                            3780.00020008542 	(obj:0)
STE(5,49)                            3437.96438690246 	(obj:0)
STE(5,50)                            5096.21428579128 	(obj:0)
STE(5,51)                            3437.96438690246 	(obj:0)
STE(5,52)                            5096.21428579137 	(obj:0)
STE(5,53)                            4754.17847277896 	(obj:0)
STE(5,54)                            6412.42837166778 	(obj:0)
STE(5,55)                            3780.00019991477 	(obj:0)
STE(5,56)                            5438.25009880368 	(obj:0)
STE(5,57)                            5096.21428579128 	(obj:0)
STE(5,58)                            6754.46418468018 	(obj:0)
STE(5,59)                            5096.21428579128 	(obj:0)
STE(5,60)                            6754.46418468018 	(obj:0)
STE(5,61)                            6412.42837166778 	(obj:0)
STE(5,62)                            8070.67827055669 	(obj:0)
y1(5,39)                             1492.42490900002 	(obj:0)
y1(5,41)                             1492.42490900002 	(obj:0)
y1(5,43)                             1492.42490900002 	(obj:0)
y1(5,45)                             1492.42490900002 	(obj:0)
y1(5,47)                             1492.42490900002 	(obj:0)
y1(5,49)                             1492.42490900002 	(obj:0)
y1(5,51)                             1492.42490900002 	(obj:0)
y1(5,53)                             1492.42490900002 	(obj:0)
y1(5,55)                             1492.42490900002 	(obj:0)
y1(5,57)                             1492.42490900002 	(obj:0)
y1(5,59)                             1492.42490900002 	(obj:0)
y1(5,61)                             1492.42490900002 	(obj:0)
AVE(1)                                   3216.9117036 	(obj:0)
AVE(2)                                   3366.1541945 	(obj:0)
WB(3)                                    3515.3966854 	(obj:0)
AVE(3)                                   3515.3966854 	(obj:0)
WB(4)                                841.984126682749 	(obj:0)
AVE(4)                               3515.39406545826 	(obj:0)
AVE(5)                               3167.15385943327 	(obj:0)
WG(1)                                    3216.9117036 	(obj:10)
WG(2)                                    3366.1541945 	(obj:10)
WG(4)                                2673.40993877551 	(obj:10)
WG(5)                                3167.15385943327 	(obj:10)
BG(1)                                979.380795379592 	(obj:10)
BG(2)                                1042.96984639451 	(obj:10)
BG(3)                                2673.40993877551 	(obj:10)
BG(5)                                1029.13863954632 	(obj:10)
y1(1,1)                              1492.42490899996 	(obj:0)
y1(2,3)                              1700.99982007663 	(obj:0)
y1(2,4)                               208.57491107669 	(obj:0)
y1(2,5)                              1700.99982007663 	(obj:0)
y1(2,6)                               208.57491107669 	(obj:0)
y1(4,23)                         -1.53581495396793e-007 	(obj:0)
y1(5,31)                             1492.42490900002 	(obj:0)
y1(5,33)                             1492.42490900002 	(obj:0)
y1(5,35)                             1492.42490900002 	(obj:0)
y1(5,37)                             1492.42490900002 	(obj:0)
y2(3,8)                              1385.48851144895 	(obj:0)
y2(3,10)                             1385.48851144895 	(obj:0)
y2(3,12)                             1385.48851144895 	(obj:0)
y2(3,14)                             1385.48851144895 	(obj:0)
y2(4,16)                             1385.48851144895 	(obj:0)
y2(4,18)                             1385.48851144895 	(obj:0)
y2(4,20)                             1385.48851144895 	(obj:0)
y2(4,22)                             1385.48851144896 	(obj:0)
y2(4,24)                             1385.48851144896 	(obj:0)
y2(4,26)                             1385.48851144895 	(obj:0)
y2(4,28)                             1385.48851144895 	(obj:0)
y2(4,30)                             1385.48851144895 	(obj:0)
